ITEM: TIMESTEP
0
ITEM: NUMBER OF ATOMS
2
ITEM: BOX BOUNDS pp pp pp
0.0 10.0
0.0 10.0
0.0 10.0
ITEM: ATOMS id type x y z ix iy iz
1 1 2.00 5.00 5.00 0 0 0
2 1 8.00 5.00 5.00 0 0 0
ITEM: TIMESTEP
4
ITEM: NUMBER OF ATOMS
2
ITEM: BOX BOUNDS pp pp pp
0.0 10.0
0.0 10.0
0.0 10.0
ITEM: ATOMS id type x y z ix iy iz
1 1 2.01 5.00 5.00 0 0 0
2 1 7.99 5.00 5.00 0 0 0
ITEM: TIMESTEP
8
ITEM: NUMBER OF ATOMS
2
ITEM: BOX BOUNDS pp pp pp
0.0 10.0
0.0 10.0
0.0 10.0
ITEM: ATOMS id type x y z ix iy iz
1 1 2.02 5.00 5.00 0 0 0
2 1 7.98 5.00 5.00 0 0 0
ITEM: TIMESTEP
12
ITEM: NUMBER OF ATOMS
2
ITEM: BOX BOUNDS pp pp pp
0.0 10.0
0.0 10.0
0.0 10.0
ITEM: ATOMS id type x y z ix iy iz
1 1 2.03 5.00 5.00 0 0 0
2 1 7.97 5.00 5.00 0 0 0
