2
Time=4.00000000 pbc="T T T" Lattice="20 0 0 0 20 0 0 0 20" energy=-1.10 Properties=species:S:1:pos:R:3:mass:R:1:vel:R:3:forces:R:3:unwrapped_position:R:3
Ar 5.01 10.00 10.00 39.948 0.01 0.00 0.00 0.001 0.000 0.000 5.01 10.00 10.00
Ar 14.99 10.00 10.00 39.948 -0.01 0.00 0.00 -0.001 0.000 0.000 14.99 10.00 10.00
2
Time=8.00000000 pbc="T T T" Lattice="20 0 0 0 20 0 0 0 20" energy=-0.90 Properties=species:S:1:pos:R:3:mass:R:1:vel:R:3:forces:R:3:unwrapped_position:R:3
Ar 5.02 10.00 10.00 39.948 0.01 0.00 0.00 0.001 0.000 0.000 5.02 10.00 10.00
Ar 14.98 10.00 10.00 39.948 -0.01 0.00 0.00 -0.001 0.000 0.000 14.98 10.00 10.00
2
Time=12.00000000 pbc="T T T" Lattice="20 0 0 0 20 0 0 0 20" energy=-1.00 Properties=species:S:1:pos:R:3:mass:R:1:vel:R:3:forces:R:3:unwrapped_position:R:3
Ar 5.03 10.00 10.00 39.948 0.01 0.00 0.00 0.001 0.000 0.000 5.03 10.00 10.00
Ar 14.97 10.00 10.00 39.948 -0.01 0.00 0.00 -0.001 0.000 0.000 14.97 10.00 10.00
